; 
(set-info :status unknown)
(declare-fun __node_125 () Bool)
(declare-fun __node_144 () Bool)
(declare-fun __node_136 () Bool)
(declare-fun __nodeactive_125 () Bool)
(declare-fun __nodeactive_144 () Bool)
(declare-fun __noderelax_125 () Bool)
(declare-fun __noderelax_144 () Bool)
(declare-fun __node_126 () Bool)
(declare-fun __edge_161 () Bool)
(declare-fun __nodedistance_126 () (_ BitVec 4))
(declare-fun __nodedistance_125 () (_ BitVec 4))
(declare-fun __node_127 () Bool)
(declare-fun __edge_162 () Bool)
(declare-fun __nodedistance_127 () (_ BitVec 4))
(declare-fun __node_128 () Bool)
(declare-fun __edge_163 () Bool)
(declare-fun __nodedistance_128 () (_ BitVec 4))
(declare-fun __node_129 () Bool)
(declare-fun __edge_164 () Bool)
(declare-fun __nodedistance_129 () (_ BitVec 4))
(declare-fun __node_130 () Bool)
(declare-fun __edge_165 () Bool)
(declare-fun __nodedistance_130 () (_ BitVec 4))
(declare-fun __node_131 () Bool)
(declare-fun __edge_166 () Bool)
(declare-fun __nodedistance_131 () (_ BitVec 4))
(declare-fun __node_132 () Bool)
(declare-fun __edge_167 () Bool)
(declare-fun __nodedistance_132 () (_ BitVec 4))
(declare-fun __node_133 () Bool)
(declare-fun __edge_168 () Bool)
(declare-fun __nodedistance_133 () (_ BitVec 4))
(declare-fun __node_134 () Bool)
(declare-fun __edge_169 () Bool)
(declare-fun __nodedistance_134 () (_ BitVec 4))
(declare-fun __node_135 () Bool)
(declare-fun __edge_170 () Bool)
(declare-fun __nodedistance_135 () (_ BitVec 4))
(declare-fun __edge_171 () Bool)
(declare-fun __nodedistance_136 () (_ BitVec 4))
(declare-fun __edge_172 () Bool)
(declare-fun __node_137 () Bool)
(declare-fun __edge_173 () Bool)
(declare-fun __nodedistance_137 () (_ BitVec 4))
(declare-fun __node_138 () Bool)
(declare-fun __edge_174 () Bool)
(declare-fun __nodedistance_138 () (_ BitVec 4))
(declare-fun __node_139 () Bool)
(declare-fun __edge_175 () Bool)
(declare-fun __nodedistance_139 () (_ BitVec 4))
(declare-fun __node_140 () Bool)
(declare-fun __edge_176 () Bool)
(declare-fun __nodedistance_140 () (_ BitVec 4))
(declare-fun __node_141 () Bool)
(declare-fun __edge_177 () Bool)
(declare-fun __nodedistance_141 () (_ BitVec 4))
(declare-fun __node_142 () Bool)
(declare-fun __edge_178 () Bool)
(declare-fun __nodedistance_142 () (_ BitVec 4))
(declare-fun __node_143 () Bool)
(declare-fun __edge_179 () Bool)
(declare-fun __nodedistance_143 () (_ BitVec 4))
(declare-fun __edge_180 () Bool)
(declare-fun __nodedistance_144 () (_ BitVec 4))
(declare-fun __edge_181 () Bool)
(declare-fun __edge_182 () Bool)
(declare-fun __pathbound () (_ BitVec 4))
(declare-fun __nodebound () (_ BitVec 5))
(declare-fun __edgebound () (_ BitVec 5))
(declare-fun __noderelax_126 () Bool)
(declare-fun __nodeactive_126 () Bool)
(declare-fun __noderelax_127 () Bool)
(declare-fun __nodeactive_127 () Bool)
(declare-fun __noderelax_128 () Bool)
(declare-fun __nodeactive_128 () Bool)
(declare-fun __noderelax_129 () Bool)
(declare-fun __nodeactive_129 () Bool)
(declare-fun __noderelax_130 () Bool)
(declare-fun __nodeactive_130 () Bool)
(declare-fun __noderelax_131 () Bool)
(declare-fun __nodeactive_131 () Bool)
(declare-fun __noderelax_132 () Bool)
(declare-fun __nodeactive_132 () Bool)
(declare-fun __noderelax_133 () Bool)
(declare-fun __nodeactive_133 () Bool)
(declare-fun __noderelax_135 () Bool)
(declare-fun __nodeactive_135 () Bool)
(declare-fun __noderelax_137 () Bool)
(declare-fun __nodeactive_137 () Bool)
(declare-fun __noderelax_138 () Bool)
(declare-fun __nodeactive_138 () Bool)
(declare-fun __noderelax_139 () Bool)
(declare-fun __nodeactive_139 () Bool)
(declare-fun __noderelax_140 () Bool)
(declare-fun __nodeactive_140 () Bool)
(declare-fun __noderelax_141 () Bool)
(declare-fun __nodeactive_141 () Bool)
(declare-fun __noderelax_142 () Bool)
(declare-fun __nodeactive_142 () Bool)
(declare-fun __noderelax_143 () Bool)
(declare-fun __nodeactive_143 () Bool)
(declare-fun __nodestatusrelaxbound () (_ BitVec 6))
(declare-fun __edgepathflag_182 () Bool)
(declare-fun __edgepathflag_181 () Bool)
(declare-fun __edgepathflag_180 () Bool)
(declare-fun __edgepathflag_179 () Bool)
(declare-fun __edgepathflag_178 () Bool)
(declare-fun __edgepathflag_176 () Bool)
(declare-fun __edgepathflag_175 () Bool)
(declare-fun __edgepathflag_173 () Bool)
(declare-fun __edgepathflag_172 () Bool)
(declare-fun __edgepathflag_171 () Bool)
(declare-fun __edgepathflag_170 () Bool)
(declare-fun __edgepathflag_169 () Bool)
(declare-fun __edgepathflag_168 () Bool)
(declare-fun __edgepathflag_167 () Bool)
(declare-fun __edgepathflag_166 () Bool)
(declare-fun __edgepathflag_165 () Bool)
(declare-fun __edgepathflag_164 () Bool)
(declare-fun __edgepathflag_163 () Bool)
(declare-fun __edgepathflag_162 () Bool)
(declare-fun __edgepathflag_161 () Bool)
(declare-fun __edgepathflag_174 () Bool)
(declare-fun __edgepathflag_177 () Bool)
(declare-fun __edgerelax_161 () Bool)
(declare-fun __edgerelax_162 () Bool)
(declare-fun __edgerelax_163 () Bool)
(declare-fun __edgerelax_164 () Bool)
(declare-fun __edgerelax_165 () Bool)
(declare-fun __edgerelax_166 () Bool)
(declare-fun __edgerelax_167 () Bool)
(declare-fun __edgerelax_168 () Bool)
(declare-fun __edgerelax_169 () Bool)
(declare-fun __nodeactive_134 () Bool)
(declare-fun __edgerelax_170 () Bool)
(declare-fun __edgerelax_171 () Bool)
(declare-fun __nodeactive_136 () Bool)
(declare-fun __edgerelax_172 () Bool)
(declare-fun __edgerelax_173 () Bool)
(declare-fun __edgerelax_174 () Bool)
(declare-fun __edgerelax_175 () Bool)
(declare-fun __edgerelax_176 () Bool)
(declare-fun __edgerelax_177 () Bool)
(declare-fun __edgerelax_178 () Bool)
(declare-fun __edgerelax_179 () Bool)
(declare-fun __edgerelax_180 () Bool)
(declare-fun __edgerelax_181 () Bool)
(declare-fun __edgerelax_182 () Bool)
(declare-fun __edgestatusrelaxbound () (_ BitVec 5))
(assert
 __node_125)
(assert
 __node_144)
(assert
 (not __node_136))
(assert
 __nodeactive_125)
(assert
 __nodeactive_144)
(assert
 (not __noderelax_125))
(assert
 (not __noderelax_144))
(assert
 (=> __edge_161 (and __node_125 __node_126)))
(assert
 (=> __edge_161 (bvult __nodedistance_125 __nodedistance_126)))
(assert
 (=> __edge_162 (and __node_125 __node_127)))
(assert
 (=> __edge_162 (bvult __nodedistance_125 __nodedistance_127)))
(assert
 (=> __edge_163 (and __node_125 __node_128)))
(assert
 (=> __edge_163 (bvult __nodedistance_125 __nodedistance_128)))
(assert
 (=> __edge_164 (and __node_126 __node_129)))
(assert
 (=> __edge_164 (bvult __nodedistance_126 __nodedistance_129)))
(assert
 (=> __edge_165 (and __node_127 __node_130)))
(assert
 (=> __edge_165 (bvult __nodedistance_127 __nodedistance_130)))
(assert
 (=> __edge_166 (and __node_128 __node_131)))
(assert
 (=> __edge_166 (bvult __nodedistance_128 __nodedistance_131)))
(assert
 (=> __edge_167 (and __node_129 __node_132)))
(assert
 (=> __edge_167 (bvult __nodedistance_129 __nodedistance_132)))
(assert
 (=> __edge_168 (and __node_130 __node_133)))
(assert
 (=> __edge_168 (bvult __nodedistance_130 __nodedistance_133)))
(assert
 (=> __edge_169 (and __node_131 __node_134)))
(assert
 (=> __edge_169 (bvult __nodedistance_131 __nodedistance_134)))
(assert
 (=> __edge_170 (and __node_132 __node_135)))
(assert
 (=> __edge_170 (bvult __nodedistance_132 __nodedistance_135)))
(assert
 (=> __edge_171 (and __node_132 __node_136)))
(assert
 (=> __edge_171 (bvult __nodedistance_132 __nodedistance_136)))
(assert
 (=> __edge_172 (and __node_133 __node_136)))
(assert
 (=> __edge_172 (bvult __nodedistance_133 __nodedistance_136)))
(assert
 (=> __edge_173 (and __node_135 __node_137)))
(assert
 (=> __edge_173 (bvult __nodedistance_135 __nodedistance_137)))
(assert
 (=> __edge_174 (and __node_136 __node_138)))
(assert
 (=> __edge_174 (bvult __nodedistance_136 __nodedistance_138)))
(assert
 (=> __edge_175 (and __node_137 __node_139)))
(assert
 (=> __edge_175 (bvult __nodedistance_137 __nodedistance_139)))
(assert
 (=> __edge_176 (and __node_138 __node_140)))
(assert
 (=> __edge_176 (bvult __nodedistance_138 __nodedistance_140)))
(assert
 (=> __edge_177 (and __node_134 __node_141)))
(assert
 (=> __edge_177 (bvult __nodedistance_134 __nodedistance_141)))
(assert
 (=> __edge_178 (and __node_139 __node_142)))
(assert
 (=> __edge_178 (bvult __nodedistance_139 __nodedistance_142)))
(assert
 (=> __edge_179 (and __node_140 __node_143)))
(assert
 (=> __edge_179 (bvult __nodedistance_140 __nodedistance_143)))
(assert
 (=> __edge_180 (and __node_141 __node_144)))
(assert
 (=> __edge_180 (bvult __nodedistance_141 __nodedistance_144)))
(assert
 (=> __edge_181 (and __node_142 __node_143)))
(assert
 (=> __edge_181 (bvult __nodedistance_142 __nodedistance_143)))
(assert
 (=> __edge_182 (and __node_143 __node_144)))
(assert
 (=> __edge_182 (bvult __nodedistance_143 __nodedistance_144)))
(assert
 (bvule __nodedistance_144 __pathbound))
(assert
 (bvule __pathbound (_ bv10 4)))
(assert
 (=> __node_125 (or (or (or false __edge_161) __edge_162) __edge_163)))
(assert
 (=> __node_144 (or (or false __edge_180) __edge_182)))
(assert
 (=> __node_126 (and (or false __edge_161) (or false __edge_164))))
(assert
 (=> __node_127 (and (or false __edge_162) (or false __edge_165))))
(assert
 (=> __node_128 (and (or false __edge_163) (or false __edge_166))))
(assert
 (=> __node_129 (and (or false __edge_164) (or false __edge_167))))
(assert
 (=> __node_130 (and (or false __edge_165) (or false __edge_168))))
(assert
 (=> __node_131 (and (or false __edge_166) (or false __edge_169))))
(assert
 (let (($x276 (or false __edge_167)))
 (=> __node_132 (and $x276 (or (or false __edge_170) __edge_171)))))
(assert
 (=> __node_133 (and (or false __edge_168) (or false __edge_172))))
(assert
 (=> __node_134 (and (or false __edge_169) (or false __edge_177))))
(assert
 (=> __node_135 (and (or false __edge_170) (or false __edge_173))))
(assert
 (let (($x300 (or false __edge_174)))
 (=> __node_136 (and (or (or false __edge_171) __edge_172) $x300))))
(assert
 (=> __node_137 (and (or false __edge_173) (or false __edge_175))))
(assert
 (=> __node_138 (and (or false __edge_174) (or false __edge_176))))
(assert
 (=> __node_139 (and (or false __edge_175) (or false __edge_178))))
(assert
 (=> __node_140 (and (or false __edge_176) (or false __edge_179))))
(assert
 (=> __node_141 (and (or false __edge_177) (or false __edge_180))))
(assert
 (=> __node_142 (and (or false __edge_178) (or false __edge_181))))
(assert
 (let (($x322 (and (or (or false __edge_179) __edge_181) (or false __edge_182))))
 (=> __node_143 $x322)))
(assert
 (bvule __nodebound (_ bv20 5)))
(assert
 (let ((?x329 (bvadd (_ bv0 5) (ite __node_125 (_ bv1 5) (_ bv0 5)))))
 (let ((?x331 (bvadd ?x329 (ite __node_126 (_ bv1 5) (_ bv0 5)))))
 (let ((?x333 (bvadd ?x331 (ite __node_127 (_ bv1 5) (_ bv0 5)))))
 (let ((?x335 (bvadd ?x333 (ite __node_128 (_ bv1 5) (_ bv0 5)))))
 (let ((?x337 (bvadd ?x335 (ite __node_129 (_ bv1 5) (_ bv0 5)))))
 (let ((?x339 (bvadd ?x337 (ite __node_130 (_ bv1 5) (_ bv0 5)))))
 (let ((?x341 (bvadd ?x339 (ite __node_131 (_ bv1 5) (_ bv0 5)))))
 (let ((?x343 (bvadd ?x341 (ite __node_132 (_ bv1 5) (_ bv0 5)))))
 (let ((?x345 (bvadd ?x343 (ite __node_133 (_ bv1 5) (_ bv0 5)))))
 (let ((?x347 (bvadd ?x345 (ite __node_134 (_ bv1 5) (_ bv0 5)))))
 (let ((?x349 (bvadd ?x347 (ite __node_135 (_ bv1 5) (_ bv0 5)))))
 (let ((?x351 (bvadd ?x349 (ite __node_136 (_ bv1 5) (_ bv0 5)))))
 (let ((?x353 (bvadd ?x351 (ite __node_137 (_ bv1 5) (_ bv0 5)))))
 (let ((?x355 (bvadd ?x353 (ite __node_138 (_ bv1 5) (_ bv0 5)))))
 (let ((?x357 (bvadd ?x355 (ite __node_139 (_ bv1 5) (_ bv0 5)))))
 (let ((?x359 (bvadd ?x357 (ite __node_140 (_ bv1 5) (_ bv0 5)))))
 (let ((?x361 (bvadd ?x359 (ite __node_141 (_ bv1 5) (_ bv0 5)))))
 (let ((?x363 (bvadd ?x361 (ite __node_142 (_ bv1 5) (_ bv0 5)))))
 (let ((?x365 (bvadd ?x363 (ite __node_143 (_ bv1 5) (_ bv0 5)))))
 (bvule (bvadd ?x365 (ite __node_144 (_ bv1 5) (_ bv0 5))) __nodebound)))))))))))))))))))))
(assert
 (bvule __edgebound (_ bv22 5)))
(assert
 (let ((?x372 (bvadd (_ bv0 5) (ite __edge_161 (_ bv1 5) (_ bv0 5)))))
 (let ((?x374 (bvadd ?x372 (ite __edge_162 (_ bv1 5) (_ bv0 5)))))
 (let ((?x376 (bvadd ?x374 (ite __edge_163 (_ bv1 5) (_ bv0 5)))))
 (let ((?x378 (bvadd ?x376 (ite __edge_164 (_ bv1 5) (_ bv0 5)))))
 (let ((?x380 (bvadd ?x378 (ite __edge_165 (_ bv1 5) (_ bv0 5)))))
 (let ((?x382 (bvadd ?x380 (ite __edge_166 (_ bv1 5) (_ bv0 5)))))
 (let ((?x384 (bvadd ?x382 (ite __edge_167 (_ bv1 5) (_ bv0 5)))))
 (let ((?x386 (bvadd ?x384 (ite __edge_168 (_ bv1 5) (_ bv0 5)))))
 (let ((?x388 (bvadd ?x386 (ite __edge_169 (_ bv1 5) (_ bv0 5)))))
 (let ((?x390 (bvadd ?x388 (ite __edge_170 (_ bv1 5) (_ bv0 5)))))
 (let ((?x392 (bvadd ?x390 (ite __edge_171 (_ bv1 5) (_ bv0 5)))))
 (let ((?x394 (bvadd ?x392 (ite __edge_172 (_ bv1 5) (_ bv0 5)))))
 (let ((?x396 (bvadd ?x394 (ite __edge_173 (_ bv1 5) (_ bv0 5)))))
 (let ((?x398 (bvadd ?x396 (ite __edge_174 (_ bv1 5) (_ bv0 5)))))
 (let ((?x400 (bvadd ?x398 (ite __edge_175 (_ bv1 5) (_ bv0 5)))))
 (let ((?x402 (bvadd ?x400 (ite __edge_176 (_ bv1 5) (_ bv0 5)))))
 (let ((?x404 (bvadd ?x402 (ite __edge_177 (_ bv1 5) (_ bv0 5)))))
 (let ((?x406 (bvadd ?x404 (ite __edge_178 (_ bv1 5) (_ bv0 5)))))
 (let ((?x408 (bvadd ?x406 (ite __edge_179 (_ bv1 5) (_ bv0 5)))))
 (let ((?x410 (bvadd ?x408 (ite __edge_180 (_ bv1 5) (_ bv0 5)))))
 (let ((?x412 (bvadd ?x410 (ite __edge_181 (_ bv1 5) (_ bv0 5)))))
 (bvule (bvadd ?x412 (ite __edge_182 (_ bv1 5) (_ bv0 5))) __edgebound)))))))))))))))))))))))
(assert
 (let (($x418 (and __node_126 __nodeactive_126)))
 (let (($x419 (not $x418)))
 (= $x419 __noderelax_126))))
(assert
 (let (($x423 (and __node_127 __nodeactive_127)))
 (let (($x424 (not $x423)))
 (= $x424 __noderelax_127))))
(assert
 (let (($x428 (and __node_128 __nodeactive_128)))
 (let (($x429 (not $x428)))
 (= $x429 __noderelax_128))))
(assert
 (let (($x433 (and __node_129 __nodeactive_129)))
 (let (($x434 (not $x433)))
 (= $x434 __noderelax_129))))
(assert
 (let (($x438 (and __node_130 __nodeactive_130)))
 (let (($x439 (not $x438)))
 (= $x439 __noderelax_130))))
(assert
 (let (($x443 (and __node_131 __nodeactive_131)))
 (let (($x444 (not $x443)))
 (= $x444 __noderelax_131))))
(assert
 (let (($x448 (and __node_132 __nodeactive_132)))
 (let (($x449 (not $x448)))
 (= $x449 __noderelax_132))))
(assert
 (let (($x453 (and __node_133 __nodeactive_133)))
 (let (($x454 (not $x453)))
 (= $x454 __noderelax_133))))
(assert
 (let (($x458 (and __node_135 __nodeactive_135)))
 (let (($x459 (not $x458)))
 (= $x459 __noderelax_135))))
(assert
 (let (($x463 (and __node_137 __nodeactive_137)))
 (= $x463 __noderelax_137)))
(assert
 (let (($x467 (and __node_138 __nodeactive_138)))
 (= $x467 __noderelax_138)))
(assert
 (let (($x471 (and __node_139 __nodeactive_139)))
 (let (($x472 (not $x471)))
 (= $x472 __noderelax_139))))
(assert
 (let (($x476 (and __node_140 __nodeactive_140)))
 (let (($x477 (not $x476)))
 (= $x477 __noderelax_140))))
(assert
 (let (($x481 (and __node_141 __nodeactive_141)))
 (= $x481 __noderelax_141)))
(assert
 (let (($x485 (and __node_142 __nodeactive_142)))
 (= $x485 __noderelax_142)))
(assert
 (let (($x489 (and __node_143 __nodeactive_143)))
 (= $x489 __noderelax_143)))
(assert
 (let ((?x422 (bvadd (_ bv0 6) (ite (not (and __node_126 __nodeactive_126)) (_ bv1 6) (_ bv0 6)))))
 (let ((?x427 (bvadd ?x422 (ite (not (and __node_127 __nodeactive_127)) (_ bv1 6) (_ bv0 6)))))
 (let ((?x432 (bvadd ?x427 (ite (not (and __node_128 __nodeactive_128)) (_ bv1 6) (_ bv0 6)))))
 (let ((?x437 (bvadd ?x432 (ite (not (and __node_129 __nodeactive_129)) (_ bv1 6) (_ bv0 6)))))
 (let ((?x442 (bvadd ?x437 (ite (not (and __node_130 __nodeactive_130)) (_ bv1 6) (_ bv0 6)))))
 (let ((?x447 (bvadd ?x442 (ite (not (and __node_131 __nodeactive_131)) (_ bv1 6) (_ bv0 6)))))
 (let ((?x452 (bvadd ?x447 (ite (not (and __node_132 __nodeactive_132)) (_ bv1 6) (_ bv0 6)))))
 (let ((?x457 (bvadd ?x452 (ite (not (and __node_133 __nodeactive_133)) (_ bv1 6) (_ bv0 6)))))
 (let ((?x462 (bvadd ?x457 (ite (not (and __node_135 __nodeactive_135)) (_ bv1 6) (_ bv0 6)))))
 (let ((?x466 (bvadd ?x462 (ite (and __node_137 __nodeactive_137) (_ bv1 6) (_ bv0 6)))))
 (let ((?x470 (bvadd ?x466 (ite (and __node_138 __nodeactive_138) (_ bv1 6) (_ bv0 6)))))
 (let ((?x475 (bvadd ?x470 (ite (not (and __node_139 __nodeactive_139)) (_ bv1 6) (_ bv0 6)))))
 (let ((?x480 (bvadd ?x475 (ite (not (and __node_140 __nodeactive_140)) (_ bv1 6) (_ bv0 6)))))
 (let ((?x484 (bvadd ?x480 (ite (and __node_141 __nodeactive_141) (_ bv1 6) (_ bv0 6)))))
 (let ((?x488 (bvadd ?x484 (ite (and __node_142 __nodeactive_142) (_ bv1 6) (_ bv0 6)))))
 (bvule (bvadd ?x488 (ite (and __node_143 __nodeactive_143) (_ bv1 6) (_ bv0 6))) __nodestatusrelaxbound)))))))))))))))))
(assert
 (let (($x519 (and true __edgepathflag_161)))
 (let (($x520 (and $x519 __edgepathflag_162)))
 (let (($x522 (and true (and $x520 __edgepathflag_163))))
 (let (($x524 (and $x522 (and true __edgepathflag_164))))
 (let (($x526 (and $x524 (and true __edgepathflag_165))))
 (let (($x528 (and $x526 (and true __edgepathflag_166))))
 (let (($x530 (and $x528 (and true __edgepathflag_167))))
 (let (($x532 (and $x530 (and true __edgepathflag_168))))
 (let (($x534 (and $x532 (and true __edgepathflag_169))))
 (let (($x537 (and $x534 (and (and true __edgepathflag_170) __edgepathflag_171))))
 (let (($x539 (and $x537 (and true __edgepathflag_172))))
 (let (($x541 (and $x539 (and true __edgepathflag_173))))
 (let (($x543 (and $x541 (and true __edgepathflag_175))))
 (let (($x545 (and $x543 (and true __edgepathflag_176))))
 (let (($x547 (and $x545 (and true __edgepathflag_178))))
 (let (($x549 (and $x547 (and true __edgepathflag_179))))
 (let (($x551 (and $x549 (and true __edgepathflag_180))))
 (let (($x553 (and $x551 (and true __edgepathflag_181))))
 (let (($x509 (or false (and __edge_171 (not __edgepathflag_171)))))
 (let (($x515 (=> (or $x509 (and __edge_172 (not __edgepathflag_172))) (and true (not __edgepathflag_174)))))
 (let (($x505 (=> (or false (and __edge_169 (not __edgepathflag_169))) (and true (not __edgepathflag_177)))))
 (let (($x506 (and true $x505)))
 (let (($x495 (and true (=> __edge_180 __edgepathflag_180))))
 (let (($x499 (and true (and true (and $x495 (=> __edge_182 __edgepathflag_182))))))
 (let (($x517 (and $x499 (and $x506 $x515))))
 (let (($x518 (and $x517 true)))
 (and $x518 (and $x553 (and true __edgepathflag_182))))))))))))))))))))))))))))))
(assert
 (let (($x559 (and __node_126 (not __nodeactive_126))))
 (let (($x563 (and __node_125 (not __nodeactive_125))))
 (let (($x561 (or false (and (and __node_125 __nodeactive_125) $x559))))
 (let (($x565 (or $x561 (and $x563 (and __node_126 __nodeactive_126)))))
 (let (($x567 (or $x565 (and $x563 $x559))))
 (= $x567 __edgerelax_161)))))))
(assert
 (let (($x572 (and __node_127 (not __nodeactive_127))))
 (let (($x563 (and __node_125 (not __nodeactive_125))))
 (let (($x574 (or false (and (and __node_125 __nodeactive_125) $x572))))
 (let (($x576 (or $x574 (and $x563 (and __node_127 __nodeactive_127)))))
 (let (($x578 (or $x576 (and $x563 $x572))))
 (= $x578 __edgerelax_162)))))))
(assert
 (let (($x583 (and __node_128 (not __nodeactive_128))))
 (let (($x563 (and __node_125 (not __nodeactive_125))))
 (let (($x585 (or false (and (and __node_125 __nodeactive_125) $x583))))
 (let (($x587 (or $x585 (and $x563 (and __node_128 __nodeactive_128)))))
 (let (($x589 (or $x587 (and $x563 $x583))))
 (= $x589 __edgerelax_163)))))))
(assert
 (let (($x596 (and __node_129 (not __nodeactive_129))))
 (let (($x559 (and __node_126 (not __nodeactive_126))))
 (let (($x433 (and __node_129 __nodeactive_129)))
 (let (($x418 (and __node_126 __nodeactive_126)))
 (let (($x594 (or false (and $x418 $x433))))
 (let (($x598 (or $x594 (and $x559 $x596))))
 (= $x598 __edgerelax_164))))))))
(assert
 (let (($x603 (and __node_130 (not __nodeactive_130))))
 (let (($x572 (and __node_127 (not __nodeactive_127))))
 (let (($x605 (or false (and (and __node_127 __nodeactive_127) $x603))))
 (let (($x607 (or $x605 (and $x572 (and __node_130 __nodeactive_130)))))
 (let (($x609 (or $x607 (and $x572 $x603))))
 (= $x609 __edgerelax_165)))))))
(assert
 (let (($x616 (and __node_131 (not __nodeactive_131))))
 (let (($x583 (and __node_128 (not __nodeactive_128))))
 (let (($x443 (and __node_131 __nodeactive_131)))
 (let (($x428 (and __node_128 __nodeactive_128)))
 (let (($x614 (or false (and $x428 $x443))))
 (let (($x618 (or $x614 (and $x583 $x616))))
 (= $x618 __edgerelax_166))))))))
(assert
 (let (($x623 (and __node_132 (not __nodeactive_132))))
 (let (($x596 (and __node_129 (not __nodeactive_129))))
 (let (($x625 (or false (and (and __node_129 __nodeactive_129) $x623))))
 (let (($x627 (or $x625 (and $x596 (and __node_132 __nodeactive_132)))))
 (let (($x629 (or $x627 (and $x596 $x623))))
 (= $x629 __edgerelax_167)))))))
(assert
 (let (($x634 (and __node_133 (not __nodeactive_133))))
 (let (($x603 (and __node_130 (not __nodeactive_130))))
 (let (($x636 (or false (and (and __node_130 __nodeactive_130) $x634))))
 (let (($x638 (or $x636 (and $x603 (and __node_133 __nodeactive_133)))))
 (let (($x640 (or $x638 (and $x603 $x634))))
 (= $x640 __edgerelax_168)))))))
(assert
 (let (($x645 (and __node_134 (not __nodeactive_134))))
 (let (($x616 (and __node_131 (not __nodeactive_131))))
 (let (($x647 (or false (and (and __node_131 __nodeactive_131) $x645))))
 (let (($x650 (or $x647 (and $x616 (and __node_134 __nodeactive_134)))))
 (let (($x652 (or $x650 (and $x616 $x645))))
 (= $x652 __edgerelax_169)))))))
(assert
 (let (($x659 (and __node_135 (not __nodeactive_135))))
 (let (($x623 (and __node_132 (not __nodeactive_132))))
 (let (($x458 (and __node_135 __nodeactive_135)))
 (let (($x448 (and __node_132 __nodeactive_132)))
 (let (($x657 (or false (and $x448 $x458))))
 (let (($x661 (or $x657 (and $x623 $x659))))
 (= $x661 __edgerelax_170))))))))
(assert
 (let (($x666 (and __node_136 (not __nodeactive_136))))
 (let (($x623 (and __node_132 (not __nodeactive_132))))
 (let (($x668 (or false (and (and __node_132 __nodeactive_132) $x666))))
 (let (($x671 (or $x668 (and $x623 (and __node_136 __nodeactive_136)))))
 (let (($x673 (or $x671 (and $x623 $x666))))
 (= $x673 __edgerelax_171)))))))
(assert
 (let (($x666 (and __node_136 (not __nodeactive_136))))
 (let (($x634 (and __node_133 (not __nodeactive_133))))
 (let (($x678 (or false (and (and __node_133 __nodeactive_133) $x666))))
 (let (($x680 (or $x678 (and $x634 (and __node_136 __nodeactive_136)))))
 (let (($x682 (or $x680 (and $x634 $x666))))
 (= $x682 __edgerelax_172)))))))
(assert
 (let (($x687 (and __node_137 (not __nodeactive_137))))
 (let (($x659 (and __node_135 (not __nodeactive_135))))
 (let (($x689 (or false (and (and __node_135 __nodeactive_135) $x687))))
 (let (($x691 (or $x689 (and $x659 (and __node_137 __nodeactive_137)))))
 (let (($x693 (or $x691 (and $x659 $x687))))
 (= $x693 __edgerelax_173)))))))
(assert
 (let (($x698 (and __node_138 (not __nodeactive_138))))
 (let (($x666 (and __node_136 (not __nodeactive_136))))
 (let (($x700 (or false (and (and __node_136 __nodeactive_136) $x698))))
 (let (($x702 (or $x700 (and $x666 (and __node_138 __nodeactive_138)))))
 (let (($x704 (or $x702 (and $x666 $x698))))
 (= $x704 __edgerelax_174)))))))
(assert
 (let (($x711 (and __node_139 (not __nodeactive_139))))
 (let (($x687 (and __node_137 (not __nodeactive_137))))
 (let (($x471 (and __node_139 __nodeactive_139)))
 (let (($x463 (and __node_137 __nodeactive_137)))
 (let (($x709 (or false (and $x463 $x471))))
 (let (($x713 (or $x709 (and $x687 $x711))))
 (= $x713 __edgerelax_175))))))))
(assert
 (let (($x720 (and __node_140 (not __nodeactive_140))))
 (let (($x698 (and __node_138 (not __nodeactive_138))))
 (let (($x476 (and __node_140 __nodeactive_140)))
 (let (($x467 (and __node_138 __nodeactive_138)))
 (let (($x718 (or false (and $x467 $x476))))
 (let (($x722 (or $x718 (and $x698 $x720))))
 (= $x722 __edgerelax_176))))))))
(assert
 (let (($x729 (and __node_141 (not __nodeactive_141))))
 (let (($x645 (and __node_134 (not __nodeactive_134))))
 (let (($x481 (and __node_141 __nodeactive_141)))
 (let (($x648 (and __node_134 __nodeactive_134)))
 (let (($x727 (or false (and $x648 $x481))))
 (let (($x731 (or $x727 (and $x645 $x729))))
 (= $x731 __edgerelax_177))))))))
(assert
 (let (($x736 (and __node_142 (not __nodeactive_142))))
 (let (($x711 (and __node_139 (not __nodeactive_139))))
 (let (($x738 (or false (and (and __node_139 __nodeactive_139) $x736))))
 (let (($x740 (or $x738 (and $x711 (and __node_142 __nodeactive_142)))))
 (let (($x742 (or $x740 (and $x711 $x736))))
 (= $x742 __edgerelax_178)))))))
(assert
 (let (($x749 (and __node_143 (not __nodeactive_143))))
 (let (($x720 (and __node_140 (not __nodeactive_140))))
 (let (($x489 (and __node_143 __nodeactive_143)))
 (let (($x476 (and __node_140 __nodeactive_140)))
 (let (($x747 (or false (and $x476 $x489))))
 (let (($x751 (or $x747 (and $x720 $x749))))
 (= $x751 __edgerelax_179))))))))
(assert
 (let (($x756 (and __node_144 (not __nodeactive_144))))
 (let (($x729 (and __node_141 (not __nodeactive_141))))
 (let (($x758 (or false (and (and __node_141 __nodeactive_141) $x756))))
 (let (($x761 (or $x758 (and $x729 (and __node_144 __nodeactive_144)))))
 (let (($x763 (or $x761 (and $x729 $x756))))
 (= $x763 __edgerelax_180)))))))
(assert
 (let (($x749 (and __node_143 (not __nodeactive_143))))
 (let (($x736 (and __node_142 (not __nodeactive_142))))
 (let (($x768 (or false (and (and __node_142 __nodeactive_142) $x749))))
 (let (($x770 (or $x768 (and $x736 (and __node_143 __nodeactive_143)))))
 (let (($x772 (or $x770 (and $x736 $x749))))
 (= $x772 __edgerelax_181)))))))
(assert
 (let (($x756 (and __node_144 (not __nodeactive_144))))
 (let (($x749 (and __node_143 (not __nodeactive_143))))
 (let (($x777 (or false (and (and __node_143 __nodeactive_143) $x756))))
 (let (($x779 (or $x777 (and $x749 (and __node_144 __nodeactive_144)))))
 (let (($x781 (or $x779 (and $x749 $x756))))
 (= $x781 __edgerelax_182)))))))
(assert
 (let (($x756 (and __node_144 (not __nodeactive_144))))
 (let (($x749 (and __node_143 (not __nodeactive_143))))
 (let (($x777 (or false (and (and __node_143 __nodeactive_143) $x756))))
 (let (($x779 (or $x777 (and $x749 (and __node_144 __nodeactive_144)))))
 (let (($x781 (or $x779 (and $x749 $x756))))
 (let (($x489 (and __node_143 __nodeactive_143)))
 (let (($x736 (and __node_142 (not __nodeactive_142))))
 (let (($x768 (or false (and (and __node_142 __nodeactive_142) $x749))))
 (let (($x770 (or $x768 (and $x736 $x489))))
 (let (($x772 (or $x770 (and $x736 $x749))))
 (let (($x759 (and __node_144 __nodeactive_144)))
 (let (($x729 (and __node_141 (not __nodeactive_141))))
 (let (($x758 (or false (and (and __node_141 __nodeactive_141) $x756))))
 (let (($x761 (or $x758 (and $x729 $x759))))
 (let (($x763 (or $x761 (and $x729 $x756))))
 (let (($x747 (or false (and (and __node_140 __nodeactive_140) $x489))))
 (let (($x751 (or $x747 (and (and __node_140 (not __nodeactive_140)) $x749))))
 (let (($x485 (and __node_142 __nodeactive_142)))
 (let (($x711 (and __node_139 (not __nodeactive_139))))
 (let (($x738 (or false (and (and __node_139 __nodeactive_139) $x736))))
 (let (($x740 (or $x738 (and $x711 $x485))))
 (let (($x742 (or $x740 (and $x711 $x736))))
 (let (($x481 (and __node_141 __nodeactive_141)))
 (let (($x648 (and __node_134 __nodeactive_134)))
 (let (($x727 (or false (and $x648 $x481))))
 (let (($x731 (or $x727 (and (and __node_134 (not __nodeactive_134)) $x729))))
 (let (($x720 (and __node_140 (not __nodeactive_140))))
 (let (($x698 (and __node_138 (not __nodeactive_138))))
 (let (($x476 (and __node_140 __nodeactive_140)))
 (let (($x467 (and __node_138 __nodeactive_138)))
 (let (($x718 (or false (and $x467 $x476))))
 (let (($x722 (or $x718 (and $x698 $x720))))
 (let (($x471 (and __node_139 __nodeactive_139)))
 (let (($x463 (and __node_137 __nodeactive_137)))
 (let (($x709 (or false (and $x463 $x471))))
 (let (($x713 (or $x709 (and (and __node_137 (not __nodeactive_137)) $x711))))
 (let (($x700 (or false (and (and __node_136 __nodeactive_136) $x698))))
 (let (($x702 (or $x700 (and (and __node_136 (not __nodeactive_136)) $x467))))
 (let (($x704 (or $x702 (and (and __node_136 (not __nodeactive_136)) $x698))))
 (let (($x687 (and __node_137 (not __nodeactive_137))))
 (let (($x659 (and __node_135 (not __nodeactive_135))))
 (let (($x689 (or false (and (and __node_135 __nodeactive_135) $x687))))
 (let (($x691 (or $x689 (and $x659 $x463))))
 (let (($x693 (or $x691 (and $x659 $x687))))
 (let (($x666 (and __node_136 (not __nodeactive_136))))
 (let (($x634 (and __node_133 (not __nodeactive_133))))
 (let (($x678 (or false (and (and __node_133 __nodeactive_133) $x666))))
 (let (($x680 (or $x678 (and $x634 (and __node_136 __nodeactive_136)))))
 (let (($x682 (or $x680 (and $x634 $x666))))
 (let (($x669 (and __node_136 __nodeactive_136)))
 (let (($x623 (and __node_132 (not __nodeactive_132))))
 (let (($x668 (or false (and (and __node_132 __nodeactive_132) $x666))))
 (let (($x671 (or $x668 (and $x623 $x669))))
 (let (($x673 (or $x671 (and $x623 $x666))))
 (let (($x458 (and __node_135 __nodeactive_135)))
 (let (($x448 (and __node_132 __nodeactive_132)))
 (let (($x657 (or false (and $x448 $x458))))
 (let (($x661 (or $x657 (and $x623 $x659))))
 (let (($x645 (and __node_134 (not __nodeactive_134))))
 (let (($x616 (and __node_131 (not __nodeactive_131))))
 (let (($x647 (or false (and (and __node_131 __nodeactive_131) $x645))))
 (let (($x650 (or $x647 (and $x616 $x648))))
 (let (($x652 (or $x650 (and $x616 $x645))))
 (let (($x453 (and __node_133 __nodeactive_133)))
 (let (($x603 (and __node_130 (not __nodeactive_130))))
 (let (($x636 (or false (and (and __node_130 __nodeactive_130) $x634))))
 (let (($x638 (or $x636 (and $x603 $x453))))
 (let (($x640 (or $x638 (and $x603 $x634))))
 (let (($x625 (or false (and (and __node_129 __nodeactive_129) $x623))))
 (let (($x627 (or $x625 (and (and __node_129 (not __nodeactive_129)) $x448))))
 (let (($x629 (or $x627 (and (and __node_129 (not __nodeactive_129)) $x623))))
 (let (($x443 (and __node_131 __nodeactive_131)))
 (let (($x428 (and __node_128 __nodeactive_128)))
 (let (($x614 (or false (and $x428 $x443))))
 (let (($x618 (or $x614 (and (and __node_128 (not __nodeactive_128)) $x616))))
 (let (($x438 (and __node_130 __nodeactive_130)))
 (let (($x572 (and __node_127 (not __nodeactive_127))))
 (let (($x605 (or false (and (and __node_127 __nodeactive_127) $x603))))
 (let (($x607 (or $x605 (and $x572 $x438))))
 (let (($x609 (or $x607 (and $x572 $x603))))
 (let (($x596 (and __node_129 (not __nodeactive_129))))
 (let (($x559 (and __node_126 (not __nodeactive_126))))
 (let (($x433 (and __node_129 __nodeactive_129)))
 (let (($x418 (and __node_126 __nodeactive_126)))
 (let (($x594 (or false (and $x418 $x433))))
 (let (($x598 (or $x594 (and $x559 $x596))))
 (let (($x583 (and __node_128 (not __nodeactive_128))))
 (let (($x563 (and __node_125 (not __nodeactive_125))))
 (let (($x585 (or false (and (and __node_125 __nodeactive_125) $x583))))
 (let (($x587 (or $x585 (and $x563 $x428))))
 (let (($x589 (or $x587 (and $x563 $x583))))
 (let (($x574 (or false (and (and __node_125 __nodeactive_125) $x572))))
 (let (($x576 (or $x574 (and $x563 (and __node_127 __nodeactive_127)))))
 (let (($x578 (or $x576 (and $x563 $x572))))
 (let (($x561 (or false (and (and __node_125 __nodeactive_125) $x559))))
 (let (($x565 (or $x561 (and $x563 $x418))))
 (let (($x567 (or $x565 (and $x563 $x559))))
 (let ((?x570 (bvadd (_ bv0 5) (ite $x567 (_ bv1 5) (_ bv0 5)))))
 (let ((?x581 (bvadd ?x570 (ite $x578 (_ bv1 5) (_ bv0 5)))))
 (let ((?x592 (bvadd ?x581 (ite $x589 (_ bv1 5) (_ bv0 5)))))
 (let ((?x601 (bvadd ?x592 (ite $x598 (_ bv1 5) (_ bv0 5)))))
 (let ((?x612 (bvadd ?x601 (ite $x609 (_ bv1 5) (_ bv0 5)))))
 (let ((?x621 (bvadd ?x612 (ite $x618 (_ bv1 5) (_ bv0 5)))))
 (let ((?x632 (bvadd ?x621 (ite $x629 (_ bv1 5) (_ bv0 5)))))
 (let ((?x643 (bvadd ?x632 (ite $x640 (_ bv1 5) (_ bv0 5)))))
 (let ((?x655 (bvadd ?x643 (ite $x652 (_ bv1 5) (_ bv0 5)))))
 (let ((?x664 (bvadd ?x655 (ite $x661 (_ bv1 5) (_ bv0 5)))))
 (let ((?x676 (bvadd ?x664 (ite $x673 (_ bv1 5) (_ bv0 5)))))
 (let ((?x685 (bvadd ?x676 (ite $x682 (_ bv1 5) (_ bv0 5)))))
 (let ((?x696 (bvadd ?x685 (ite $x693 (_ bv1 5) (_ bv0 5)))))
 (let ((?x707 (bvadd ?x696 (ite $x704 (_ bv1 5) (_ bv0 5)))))
 (let ((?x716 (bvadd ?x707 (ite $x713 (_ bv1 5) (_ bv0 5)))))
 (let ((?x725 (bvadd ?x716 (ite $x722 (_ bv1 5) (_ bv0 5)))))
 (let ((?x734 (bvadd ?x725 (ite $x731 (_ bv1 5) (_ bv0 5)))))
 (let ((?x745 (bvadd ?x734 (ite $x742 (_ bv1 5) (_ bv0 5)))))
 (let ((?x754 (bvadd ?x745 (ite $x751 (_ bv1 5) (_ bv0 5)))))
 (let ((?x766 (bvadd ?x754 (ite $x763 (_ bv1 5) (_ bv0 5)))))
 (let ((?x775 (bvadd ?x766 (ite $x772 (_ bv1 5) (_ bv0 5)))))
 (bvule (bvadd ?x775 (ite $x781 (_ bv1 5) (_ bv0 5))) __edgestatusrelaxbound))))))))))))))))))))))))))))))))))))))))))))))))))))))))))))))))))))))))))))))))))))))))))))))))))))))))))))))))))))))))
(assert
 __nodeactive_125)
(assert
 (bvule __nodestatusrelaxbound (_ bv6 6)))
(assert
 (bvule __edgestatusrelaxbound (_ bv5 5)))
(check-sat)

